Cr W
1.0
     -4.74780000000000      4.74780000000000      4.74780000000000
      4.74780000000000     -4.74780000000000      4.74780000000000
     22.15640000000000     22.15640000000000    -22.15640000000000
  Cr  W
  50  76
Direct
      0.95917092126880      0.96816865811534      0.49720770093517
      0.01321480791103      0.00500002948734      0.64550439850337
      0.02470164391929      0.00958270672733      0.71484565498005
      0.99808229706390      0.04498495197776      0.78693941863299
      0.00569220691689      0.95992206706264      0.85460334214945
      0.02852533805131      0.01707392265892      0.93699117230236
      0.98999325055815      0.32422449450272      0.99945074470582
      0.00425774042715      0.37500664939551      0.72332002085176
      0.02653153671174      0.31602875647668      0.78101327246304
      0.03623674017440      0.35041416234888      0.85974554417685
      0.94164897531488      0.32232579510510      0.92238893795924
      0.00297687771178      0.69786223619361      0.00666782081024
      0.00976392329079      0.67301549665108      0.06589191430016
      0.01903075003159      0.67753932347614      0.78681344239136
      0.98995007477147      0.62371646025528      0.85489146544565
      0.02461892139517      0.68143246766924      0.93475183536134
      0.31188345654830      0.96899345907578      0.98451795733964
      0.37633097961161      0.03554564429841      0.64806435770251
      0.37419582332870      0.99870936854964      0.71662326145042
      0.32080287606892      0.00016090294452      0.78158398386019
      0.32830760773411      0.99399800855133      0.85950529756639
      0.34759709444374      0.03211252369519      0.92933947820946
      0.32009537469986      0.36446418867686      0.00338278127313
      0.31439827814988      0.32664389085471      0.07613202550956
      0.32620522873752      0.35206828741733      0.14383332355437
      0.33990307194911      0.30844608976789      0.21353406464949
      0.35503107017987      0.37915303719617      0.78640178616562
      0.35507800139012      0.34092306226042      0.85832830423715
      0.33601144740722      0.31279218269514      0.92321073166218
      0.35889529676903      0.69092454715868      0.99942483007167
      0.30070490964236      0.64180502021989      0.06352984668087
      0.35879390033279      0.69041372003875      0.14883395587731
      0.36714718711824      0.66569438898016      0.86750724102291
      0.31394897952736      0.68182418593875      0.93296903806575
      0.67506397489364      0.00848405998568      0.99938135753101
      0.65873687181431      0.94859765891571      0.06322749476449
      0.63034513564177      0.96209604869624      0.21073096870430
      0.68431654661106      0.02374792746114      0.78439409651387
      0.65983761636969      0.99417773179157      0.85606950181437
      0.62506403176208      0.98036756497746      0.92301030018415
      0.64242035469059      0.38113089325582      0.00299822692315
      0.69092814250811      0.34580794999789      0.07653604601831
      0.69458618623362      0.39029302624373      0.15088632607283
      0.68352399427103      0.34747522958002      0.86219098386922
      0.64243840936855      0.30477208075319      0.92862016189453
      0.66951533025822      0.64523281519862      0.00596784698778
      0.65381392645015      0.64700469585913      0.06697804494412
      0.63037360672311      0.67914740827331      0.14628458120453
      0.66914324634568      0.69408048253928      0.21475383907133
      0.65769369497452      0.65356845696954      0.92164598152227
      0.99809735772358      0.97456754180884      0.99962232718312
      0.00920083828299      0.99241945427356      0.06699345313318
      0.00328479927545      0.99969770841232      0.15739258634074
      0.96441164328742      0.00005134378028      0.21410880422812
      0.96873332174902      0.96985328257298      0.28101201097651
      0.03942422701041      0.97307693879270      0.35343861931541
      0.00290434517040      0.01962996967016      0.42447625787583
      0.99691847171321      0.01226473629892      0.57181219940965
      0.95984817599730      0.31485215468217      0.07525991496814
      0.01538448965837      0.34964156662033      0.14932343611778
      0.96578314271873      0.30565874194364      0.20694272625517
      0.97504170773832      0.34429413307216      0.27951586561896
      0.03497228084587      0.34694238278782      0.36226761703165
      0.95581913096592      0.30617387210919      0.41947406347602
      0.01568243186318      0.36813069632251      0.50631476593670
      0.98179032078015      0.29553255297190      0.57088429663664
      0.94495519925018      0.31505662622688      0.64202719236880
      0.02372113189267      0.70272097708412      0.15150879046235
      0.97759345381019      0.65651824108008      0.21638202663790
      0.02254387927040      0.64111751021526      0.28531845990323
      0.00830546779561      0.67965579742196      0.35973504382481
      0.99876622330343      0.65923422532541      0.43249968993158
      0.99123686970808      0.69167323286575      0.50167582888014
      0.98546493955095      0.63425677998231      0.56634230064451
      0.01427111504276      0.66843008235393      0.64571987845498
      0.00998008024769      0.69713464236067      0.72467508169197
      0.36137952525380      0.97416569884999      0.06447959257822
      0.33679852352669      0.02767652175745      0.14622520806629
      0.32053321222461      0.01677651333249      0.20952234952429
      0.33661508066894      0.01561163907494      0.29355264212598
      0.37666562618476      0.03352429125068      0.36482181311043
      0.31234058511311      0.02506312292009      0.42644217810655
      0.36066866338093      0.02042335502759      0.50634757835208
      0.31100661043009      0.03711406440878      0.57038882264267
      0.32109070200935      0.34070574160664      0.28829787713708
      0.34606391381271      0.37220905577320      0.35464748176599
      0.31635121845908      0.32957459138970      0.42713691935513
      0.33511508488142      0.31791042798770      0.50381916511708
      0.35959018282152      0.35397509372762      0.56985216145222
      0.36184564745777      0.35145119318421      0.65261539916232
      0.36787506213404      0.37078533847256      0.72446122249102
      0.32872596149796      0.67359242175323      0.21868695004604
      0.30714106006993      0.64604882682506      0.27739581136827
      0.33790347424070      0.68093491090610      0.36100669490531
      0.36417774232276      0.63358825877248      0.43431446670037
      0.35171798201272      0.66953237710097      0.50423458210720
      0.32399643308480      0.62891606744176      0.57143505849326
      0.33384027549602      0.69284748831038      0.65048598080013
      0.31215721492060      0.64084045242007      0.70460642906790
      0.34353446754286      0.70605836071444      0.79372541929194
      0.63746186865496      0.98085193563335      0.13524546090520
      0.62398869897637      0.97297064956401      0.28310079728656
      0.65377641328615      0.99108290787312      0.35215978972216
      0.62554990311302      0.97450110366907      0.42099245545305
      0.70949105269809      0.99245882829942      0.49777828415266
      0.67910534879313      0.04776696996504      0.57455304539546
      0.64115352163107      0.99610409031551      0.64129255384449
      0.67485093095750      0.00335779624247      0.71402368277337
      0.69422261152534      0.35206024369182      0.22401626076438
      0.66298352605417      0.34314073044357      0.28582251155422
      0.62761362104554      0.33459686065125      0.35012402172736
      0.62557388053414      0.33163672543073      0.42683665103537
      0.67937086966595      0.34274029445217      0.50941704180282
      0.68599353700661      0.35709280508867      0.57179010782438
      0.68358757740427      0.34753351657610      0.63942014993410
      0.66024631513543      0.31802496103458      0.70862786079869
      0.63317996967016      0.34763485087830      0.78695910323879
      0.64716509330637      0.63562652386368      0.28670151739452
      0.66600566894140      0.67018893382198      0.35968087392356
      0.68321403281520      0.65772024727242      0.42474283209366
      0.67163323644635      0.67128741311765      0.49607062654583
      0.68722743059944      0.70078008024769      0.58141492570995
      0.64287146467838      0.63907749168036      0.64183686496904
      0.68705924217532      0.66464853511100      0.71792435436262
      0.65348048464552      0.65510726757656      0.78065109358921
      0.67764563587346      0.67191079868571      0.84906589111950